c description: 4-dominating set on 
c generator: CNFgen (0.9.0)
c copyright: (C) 2012-2020 Massimo Lauria <massimo.lauria@uniroma1.it>
c url: https://massimolauria.net/cnfgen
c
p cnf 50 689
-11 -12 0
-11 -13 0
-11 -14 0
-11 -15 0
-11 -16 0
-11 -17 0
-11 -18 0
-11 -19 0
-11 -20 0
-12 -13 0
-12 -14 0
-12 -15 0
-12 -16 0
-12 -17 0
-12 -18 0
-12 -19 0
-12 -20 0
-13 -14 0
-13 -15 0
-13 -16 0
-13 -17 0
-13 -18 0
-13 -19 0
-13 -20 0
-14 -15 0
-14 -16 0
-14 -17 0
-14 -18 0
-14 -19 0
-14 -20 0
-15 -16 0
-15 -17 0
-15 -18 0
-15 -19 0
-15 -20 0
-16 -17 0
-16 -18 0
-16 -19 0
-16 -20 0
-17 -18 0
-17 -19 0
-17 -20 0
-18 -19 0
-18 -20 0
-19 -20 0
-21 -22 0
-21 -23 0
-21 -24 0
-21 -25 0
-21 -26 0
-21 -27 0
-21 -28 0
-21 -29 0
-21 -30 0
-22 -23 0
-22 -24 0
-22 -25 0
-22 -26 0
-22 -27 0
-22 -28 0
-22 -29 0
-22 -30 0
-23 -24 0
-23 -25 0
-23 -26 0
-23 -27 0
-23 -28 0
-23 -29 0
-23 -30 0
-24 -25 0
-24 -26 0
-24 -27 0
-24 -28 0
-24 -29 0
-24 -30 0
-25 -26 0
-25 -27 0
-25 -28 0
-25 -29 0
-25 -30 0
-26 -27 0
-26 -28 0
-26 -29 0
-26 -30 0
-27 -28 0
-27 -29 0
-27 -30 0
-28 -29 0
-28 -30 0
-29 -30 0
-31 -32 0
-31 -33 0
-31 -34 0
-31 -35 0
-31 -36 0
-31 -37 0
-31 -38 0
-31 -39 0
-31 -40 0
-32 -33 0
-32 -34 0
-32 -35 0
-32 -36 0
-32 -37 0
-32 -38 0
-32 -39 0
-32 -40 0
-33 -34 0
-33 -35 0
-33 -36 0
-33 -37 0
-33 -38 0
-33 -39 0
-33 -40 0
-34 -35 0
-34 -36 0
-34 -37 0
-34 -38 0
-34 -39 0
-34 -40 0
-35 -36 0
-35 -37 0
-35 -38 0
-35 -39 0
-35 -40 0
-36 -37 0
-36 -38 0
-36 -39 0
-36 -40 0
-37 -38 0
-37 -39 0
-37 -40 0
-38 -39 0
-38 -40 0
-39 -40 0
-41 -42 0
-41 -43 0
-41 -44 0
-41 -45 0
-41 -46 0
-41 -47 0
-41 -48 0
-41 -49 0
-41 -50 0
-42 -43 0
-42 -44 0
-42 -45 0
-42 -46 0
-42 -47 0
-42 -48 0
-42 -49 0
-42 -50 0
-43 -44 0
-43 -45 0
-43 -46 0
-43 -47 0
-43 -48 0
-43 -49 0
-43 -50 0
-44 -45 0
-44 -46 0
-44 -47 0
-44 -48 0
-44 -49 0
-44 -50 0
-45 -46 0
-45 -47 0
-45 -48 0
-45 -49 0
-45 -50 0
-46 -47 0
-46 -48 0
-46 -49 0
-46 -50 0
-47 -48 0
-47 -49 0
-47 -50 0
-48 -49 0
-48 -50 0
-49 -50 0
-12 -11 0
-13 -11 0
-14 -11 0
-15 -11 0
-16 -11 0
-17 -11 0
-18 -11 0
-19 -11 0
-20 -11 0
-13 -12 0
-14 -12 0
-15 -12 0
-16 -12 0
-17 -12 0
-18 -12 0
-19 -12 0
-20 -12 0
-14 -13 0
-15 -13 0
-16 -13 0
-17 -13 0
-18 -13 0
-19 -13 0
-20 -13 0
-15 -14 0
-16 -14 0
-17 -14 0
-18 -14 0
-19 -14 0
-20 -14 0
-16 -15 0
-17 -15 0
-18 -15 0
-19 -15 0
-20 -15 0
-17 -16 0
-18 -16 0
-19 -16 0
-20 -16 0
-18 -17 0
-19 -17 0
-20 -17 0
-19 -18 0
-20 -18 0
-20 -19 0
-12 -21 0
-13 -21 0
-14 -21 0
-15 -21 0
-16 -21 0
-17 -21 0
-18 -21 0
-19 -21 0
-20 -21 0
-13 -22 0
-14 -22 0
-15 -22 0
-16 -22 0
-17 -22 0
-18 -22 0
-19 -22 0
-20 -22 0
-14 -23 0
-15 -23 0
-16 -23 0
-17 -23 0
-18 -23 0
-19 -23 0
-20 -23 0
-15 -24 0
-16 -24 0
-17 -24 0
-18 -24 0
-19 -24 0
-20 -24 0
-16 -25 0
-17 -25 0
-18 -25 0
-19 -25 0
-20 -25 0
-17 -26 0
-18 -26 0
-19 -26 0
-20 -26 0
-18 -27 0
-19 -27 0
-20 -27 0
-19 -28 0
-20 -28 0
-20 -29 0
-12 -31 0
-13 -31 0
-14 -31 0
-15 -31 0
-16 -31 0
-17 -31 0
-18 -31 0
-19 -31 0
-20 -31 0
-13 -32 0
-14 -32 0
-15 -32 0
-16 -32 0
-17 -32 0
-18 -32 0
-19 -32 0
-20 -32 0
-14 -33 0
-15 -33 0
-16 -33 0
-17 -33 0
-18 -33 0
-19 -33 0
-20 -33 0
-15 -34 0
-16 -34 0
-17 -34 0
-18 -34 0
-19 -34 0
-20 -34 0
-16 -35 0
-17 -35 0
-18 -35 0
-19 -35 0
-20 -35 0
-17 -36 0
-18 -36 0
-19 -36 0
-20 -36 0
-18 -37 0
-19 -37 0
-20 -37 0
-19 -38 0
-20 -38 0
-20 -39 0
-12 -41 0
-13 -41 0
-14 -41 0
-15 -41 0
-16 -41 0
-17 -41 0
-18 -41 0
-19 -41 0
-20 -41 0
-13 -42 0
-14 -42 0
-15 -42 0
-16 -42 0
-17 -42 0
-18 -42 0
-19 -42 0
-20 -42 0
-14 -43 0
-15 -43 0
-16 -43 0
-17 -43 0
-18 -43 0
-19 -43 0
-20 -43 0
-15 -44 0
-16 -44 0
-17 -44 0
-18 -44 0
-19 -44 0
-20 -44 0
-16 -45 0
-17 -45 0
-18 -45 0
-19 -45 0
-20 -45 0
-17 -46 0
-18 -46 0
-19 -46 0
-20 -46 0
-18 -47 0
-19 -47 0
-20 -47 0
-19 -48 0
-20 -48 0
-20 -49 0
-22 -21 0
-23 -21 0
-24 -21 0
-25 -21 0
-26 -21 0
-27 -21 0
-28 -21 0
-29 -21 0
-30 -21 0
-23 -22 0
-24 -22 0
-25 -22 0
-26 -22 0
-27 -22 0
-28 -22 0
-29 -22 0
-30 -22 0
-24 -23 0
-25 -23 0
-26 -23 0
-27 -23 0
-28 -23 0
-29 -23 0
-30 -23 0
-25 -24 0
-26 -24 0
-27 -24 0
-28 -24 0
-29 -24 0
-30 -24 0
-26 -25 0
-27 -25 0
-28 -25 0
-29 -25 0
-30 -25 0
-27 -26 0
-28 -26 0
-29 -26 0
-30 -26 0
-28 -27 0
-29 -27 0
-30 -27 0
-29 -28 0
-30 -28 0
-30 -29 0
-22 -31 0
-23 -31 0
-24 -31 0
-25 -31 0
-26 -31 0
-27 -31 0
-28 -31 0
-29 -31 0
-30 -31 0
-23 -32 0
-24 -32 0
-25 -32 0
-26 -32 0
-27 -32 0
-28 -32 0
-29 -32 0
-30 -32 0
-24 -33 0
-25 -33 0
-26 -33 0
-27 -33 0
-28 -33 0
-29 -33 0
-30 -33 0
-25 -34 0
-26 -34 0
-27 -34 0
-28 -34 0
-29 -34 0
-30 -34 0
-26 -35 0
-27 -35 0
-28 -35 0
-29 -35 0
-30 -35 0
-27 -36 0
-28 -36 0
-29 -36 0
-30 -36 0
-28 -37 0
-29 -37 0
-30 -37 0
-29 -38 0
-30 -38 0
-30 -39 0
-22 -41 0
-23 -41 0
-24 -41 0
-25 -41 0
-26 -41 0
-27 -41 0
-28 -41 0
-29 -41 0
-30 -41 0
-23 -42 0
-24 -42 0
-25 -42 0
-26 -42 0
-27 -42 0
-28 -42 0
-29 -42 0
-30 -42 0
-24 -43 0
-25 -43 0
-26 -43 0
-27 -43 0
-28 -43 0
-29 -43 0
-30 -43 0
-25 -44 0
-26 -44 0
-27 -44 0
-28 -44 0
-29 -44 0
-30 -44 0
-26 -45 0
-27 -45 0
-28 -45 0
-29 -45 0
-30 -45 0
-27 -46 0
-28 -46 0
-29 -46 0
-30 -46 0
-28 -47 0
-29 -47 0
-30 -47 0
-29 -48 0
-30 -48 0
-30 -49 0
-32 -31 0
-33 -31 0
-34 -31 0
-35 -31 0
-36 -31 0
-37 -31 0
-38 -31 0
-39 -31 0
-40 -31 0
-33 -32 0
-34 -32 0
-35 -32 0
-36 -32 0
-37 -32 0
-38 -32 0
-39 -32 0
-40 -32 0
-34 -33 0
-35 -33 0
-36 -33 0
-37 -33 0
-38 -33 0
-39 -33 0
-40 -33 0
-35 -34 0
-36 -34 0
-37 -34 0
-38 -34 0
-39 -34 0
-40 -34 0
-36 -35 0
-37 -35 0
-38 -35 0
-39 -35 0
-40 -35 0
-37 -36 0
-38 -36 0
-39 -36 0
-40 -36 0
-38 -37 0
-39 -37 0
-40 -37 0
-39 -38 0
-40 -38 0
-40 -39 0
-32 -41 0
-33 -41 0
-34 -41 0
-35 -41 0
-36 -41 0
-37 -41 0
-38 -41 0
-39 -41 0
-40 -41 0
-33 -42 0
-34 -42 0
-35 -42 0
-36 -42 0
-37 -42 0
-38 -42 0
-39 -42 0
-40 -42 0
-34 -43 0
-35 -43 0
-36 -43 0
-37 -43 0
-38 -43 0
-39 -43 0
-40 -43 0
-35 -44 0
-36 -44 0
-37 -44 0
-38 -44 0
-39 -44 0
-40 -44 0
-36 -45 0
-37 -45 0
-38 -45 0
-39 -45 0
-40 -45 0
-37 -46 0
-38 -46 0
-39 -46 0
-40 -46 0
-38 -47 0
-39 -47 0
-40 -47 0
-39 -48 0
-40 -48 0
-40 -49 0
-42 -41 0
-43 -41 0
-44 -41 0
-45 -41 0
-46 -41 0
-47 -41 0
-48 -41 0
-49 -41 0
-50 -41 0
-43 -42 0
-44 -42 0
-45 -42 0
-46 -42 0
-47 -42 0
-48 -42 0
-49 -42 0
-50 -42 0
-44 -43 0
-45 -43 0
-46 -43 0
-47 -43 0
-48 -43 0
-49 -43 0
-50 -43 0
-45 -44 0
-46 -44 0
-47 -44 0
-48 -44 0
-49 -44 0
-50 -44 0
-46 -45 0
-47 -45 0
-48 -45 0
-49 -45 0
-50 -45 0
-47 -46 0
-48 -46 0
-49 -46 0
-50 -46 0
-48 -47 0
-49 -47 0
-50 -47 0
-49 -48 0
-50 -48 0
-50 -49 0
-11 1 0
-12 2 0
-13 3 0
-14 4 0
-15 5 0
-16 6 0
-17 7 0
-18 8 0
-19 9 0
-20 10 0
-21 1 0
-22 2 0
-23 3 0
-24 4 0
-25 5 0
-26 6 0
-27 7 0
-28 8 0
-29 9 0
-30 10 0
-31 1 0
-32 2 0
-33 3 0
-34 4 0
-35 5 0
-36 6 0
-37 7 0
-38 8 0
-39 9 0
-40 10 0
-41 1 0
-42 2 0
-43 3 0
-44 4 0
-45 5 0
-46 6 0
-47 7 0
-48 8 0
-49 9 0
-50 10 0
-1 11 21 31 41 0
-2 12 22 32 42 0
-3 13 23 33 43 0
-4 14 24 34 44 0
-5 15 25 35 45 0
-6 16 26 36 46 0
-7 17 27 37 47 0
-8 18 28 38 48 0
-9 19 29 39 49 0
-10 20 30 40 50 0
1 0
2 5 6 7 9 0
2 5 7 0
3 4 6 7 9 0
3 6 7 9 0
3 6 9 0
4 9 10 0
4 10 0
8 0